20
2 0 14
3 0 2
4 1 13
4 2 1
4 3 5
5 0 11
5 2 3
5 3 11
6 0 9
6 1 9
6 2 11
6 4 4
6 5 8
7 0 2
7 2 7
7 4 7
8 0 7
8 6 9
8 7 5
9 5 5
9 6 10
10 1 2
10 2 12
10 5 12
10 6 5
11 2 13
11 3 3
12 1 1
12 3 4
12 5 6
12 6 7
12 7 4
12 9 2
12 10 12
12 11 3
13 1 14
13 2 2
13 8 14
13 9 5
13 10 2
14 0 6
14 1 11
14 4 1
14 6 10
14 7 12
14 10 2
15 0 4
15 2 7
15 5 12
15 7 12
15 10 2
15 11 6
16 0 7
16 4 8
16 14 6
16 15 2
17 2 12
17 5 14
17 8 1
17 11 14
17 15 8
17 16 7
18 0 1
18 2 5
18 7 2
18 8 4
18 11 10
18 13 3
18 17 10
19 1 11
19 4 10
19 5 2
19 6 3
19 7 4
19 8 10
19 9 11
19 11 12
19 13 12
19 14 10
19 15 10
19 16 5
